c ---- [ banner ] ------------------------------------------------------------
c
c KISSAT SAT Solver
c Copyright (c) 2019-2021 Armin Biere JKU Linz
c 
c Version 2.0.1 02cd69626a53e93e09286b1978ccb5d6bec58b8e
c Apple clang version 13.1.6 (clang-1316.0.21.2) -W -Wall -O3 -DNDEBUG
c Thu Mar 31 15:34:51 EDT 2022 Darwin Randals-Macbook-Pro.local 21.2.0 arm64
c
c ---- [ proving ] -----------------------------------------------------------
c
c opened and writing proof to DRAT file:
c
c   chess-kissat-014.drat
c
c ---- [ parsing ] -----------------------------------------------------------
c
c opened and reading DIMACS file:
c
c   chess-kissat-014.cnf
c
c parsed 'p cnf 360 1196' header
c closing input after reading 25302 bytes (25 KB)
c finished parsing after 0.00 seconds
c
c ---- [ solving ] -----------------------------------------------------------
c
c  seconds switched rate      trail    variables
c         MB reductions conflicts glue     remaining
c          level restarts redundant irredundant
c
c *  0.00  0 0 0 0  0 0   0   0 0% 0 1196 360 100%
c {  0.00  0 0 0 0  0 0   0   0 0% 0 1196 360 100%
c -  0.00  0 55 0 1 27 5 302 242 87% 4 1196 360 100%
c d  0.01  0 42 0 1 180 8 949 827 73% 5 1184 354 98%
c t  0.01  0 42 0 1 180 8 949 827 73% 5 1182 354 98%
c u  0.01  0 42 0 1 180 8 999 807 73% 5 1182 354 98%
c v  0.01  0 42 0 1 180 8 1036 795 73% 5 1182 354 98%
c }  0.01  0 42 1 1 180 8 1036 795 73% 5 1182 354 98%
c [  0.01  0 0 1 1 180 0 1036 795 0% 0 1182 354 98%
c O  0.01  0 0 1 1 180 0 1036 795 0% 0 1182 354 98%
c -  0.01  0 59 1 2 180 2 1304 818 84% 7 1182 354 98%
c t  0.02  0 57 1 2 180 1 1984 1350 82% 8 1181 354 98%
c u  0.02  0 57 1 2 180 1 2003 1349 82% 8 1181 354 98%
c v  0.02  0 57 1 2 180 1 2018 1343 82% 8 1181 354 98%
c I  0.02  0 57 1 2 180 1 2037 1360 82% 8 1181 354 98%
c ]  0.02  0 56 2 2 181 2 2315 1591 76% 9 1181 354 98%
c {  0.02  0 42 2 2 181 8 2315 1591 73% 5 1181 354 98%
c -  0.03  0 40 2 3 291 9 2720 1406 71% 5 1181 354 98%
c }  0.03  0 40 3 3 311 9 2785 1469 70% 5 1181 354 98%
c [  0.03  0 56 3 3 311 2 2785 1469 76% 9 1181 354 98%
c
c  seconds  switched  rate         trail     variables
c         MB reductions conflicts      glue      remaining
c          level restarts   redundant  irredundant
c
c t  0.04  0 45 3 3 312 1 3985 2360 68% 11 1180 354 98%
c u  0.04  0 45 3 3 312 1 4033 2350 68% 11 1180 354 98%
c v  0.04  0 45 3 3 312 1 4073 2340 68% 11 1180 354 98%
c B  0.04  0 44 3 3 312 2 4297 2512 67% 11 1180 354 98%
c -  0.04  0 44 3 4 312 2 4452 1713 67% 11 1180 354 98%
c e  0.05  0 44 3 4 312 2 4747 1927 66% 11 959 229 63%
c e  0.05  0 44 3 4 312 2 4747 1927 66% 11 956 228 63%
c -  0.07  0 39 3 5 313 2 6452 755 61% 11 956 228 63%
c u  0.07  0 38 3 5 313 2 7210 1216 59% 11 956 228 63%
c v  0.07  0 38 3 5 313 2 7279 1191 59% 11 956 228 63%
c w  0.07  0 38 3 5 313 2 7283 1191 59% 11 956 228 63%
c W  0.08  0 36 3 5 314 2 8068 1729 57% 12 956 228 63%
c ]  0.08  0 36 4 5 315 2 8527 2074 58% 11 956 228 63%
c {  0.08  0 40 4 5 315 9 8527 2074 70% 5 956 228 63%
c -  0.09  0 40 4 6 325 9 8689 1295 71% 5 956 228 63%
c ^  0.09  0 39 4 6 442 9 9204 1767 71% 6 956 228 63%
c }  0.11  0 35 5 6 777 8 10973 3305 70% 6 956 228 63%
c [  0.11  0 36 5 6 777 2 10973 3305 58% 11 956 228 63%
c -  0.11  0 35 5 7 777 2 11139 2614 58% 11 956 228 63%
c u  0.11  0 35 5 7 777 2 11398 2670 58% 11 956 228 63%
c
c  seconds  switched  rate          trail    variables
c         MB reductions conflicts       glue     remaining
c          level restarts    redundant  irredundant
c
c v  0.12  0 35 5 7 777 2 11511 2629 58% 11 956 228 63%
c O  0.13  0 35 5 7 779 2 13599 4264 57% 11 956 228 63%
c -  0.14  0 35 5 8 779 2 13786 3081 57% 11 956 228 63%
c -  0.17  0 32 5 9 781 1 16616 2901 57% 12 956 228 63%
c 3  0.17  0 32 5 9 781 1 16628 2913 57% 12 956 228 63%
c u  0.17  0 32 5 9 781 1 16785 2858 57% 12 956 228 63%
c v  0.17  0 32 5 9 781 1 16929 2805 57% 12 956 228 63%
c e  0.19  0 31 5 9 782 1 18864 4073 56% 12 954 226 63%
c ^  0.19  0 31 5 9 782 1 18864 4073 56% 12 954 226 63%
c -  0.20  0 30 5 10 782 1 19616 2754 56% 12 954 226 63%
c ]  0.21  0 30 6 10 782 1 19869 2932 56% 12 954 226 63%
c {  0.21  0 35 6 10 782 8 19869 2932 70% 6 954 226 63%
c -  0.25  0 32 6 11 1386 8 22778 4102 65% 7 954 226 63%
c u  0.26  0 31 6 11 1478 8 23442 4431 65% 7 954 226 63%
c v  0.26  0 31 6 11 1478 8 23628 4385 65% 7 954 226 63%
c }  0.26  0 31 7 11 1513 8 23882 4583 65% 7 954 226 63%
c [  0.26  0 30 7 11 1513 1 23882 4583 56% 12 954 226 63%
c B  0.26  0 30 7 11 1513 1 23882 4583 56% 12 954 226 63%
c -  0.28  0 29 7 12 1515 1 26094 4460 54% 12 954 226 63%
c -  0.32  0 28 7 13 1517 1 29558 4600 52% 11 954 226 63%
c
c  seconds  switched    rate          trail    variables
c         MB  reductions  conflicts       glue     remaining
c          level   restarts    redundant  irredundant
c
c u  0.33  0 28 7 13 1518 1 31268 5544 51% 11 954 226 63%
c v  0.34  0 28 7 13 1518 1 31372 5531 51% 11 954 226 63%
c -  0.36  0 27 7 14 1519 1 33163 4670 50% 11 954 226 63%
c W  0.36  0 27 7 14 1519 1 33643 5036 50% 11 954 226 63%
c e  0.37  0 27 7 14 1519 1 34412 5584 49% 11 953 220 61%
c e  0.37  0 27 7 14 1519 1 34412 5584 49% 11 955 218 60%
c -  0.40  0 27 7 15 1519 1 36905 3902 49% 11 955 218 60%
c ]  0.42  0 26 8 15 1521 1 39444 5587 48% 11 955 218 60%
c {  0.42  0 31 8 15 1521 8 39444 5587 65% 7 955 218 60%
c 3  0.43  0 31 8 15 1653 8 40160 6219 64% 7 955 218 60%
c u  0.43  0 31 8 15 1653 8 40238 6176 64% 7 955 218 60%
c v  0.43  0 31 8 15 1653 8 40341 6134 64% 7 955 218 60%
c w  0.43  0 31 8 15 1653 8 40359 6134 64% 7 954 218 60%
c -  0.45  0 30 8 16 1749 8 40777 4424 64% 7 954 218 60%
c -  0.50  0 28 8 17 2133 6 44778 6067 62% 7 954 218 60%
c }  0.52  0 27 9 17 2310 6 46032 7155 61% 7 954 218 60%
c [  0.52  0 26 9 17 2310 1 46032 7155 48% 11 954 218 60%
c I  0.52  0 26 9 17 2310 1 46032 7155 48% 11 954 218 60%
c -  0.55  0 27 9 18 2312 1 48901 6724 48% 11 954 218 60%
c 3  0.56  0 27 9 18 2313 1 50412 7801 48% 11 954 218 60%
c
c  seconds  switched    rate          trail    variables
c         MB  reductions  conflicts       glue     remaining
c          level   restarts    redundant  irredundant
c
c u  0.57  0 27 9 18 2313 1 50567 7722 48% 11 954 218 60%
c v  0.57  0 27 9 18 2313 1 50751 7683 48% 11 954 218 60%
c -  0.60  0 26 9 19 2315 1 53143 6268 47% 11 954 218 60%
c ^  0.64  0 26 9 19 2316 1 56512 8386 46% 11 954 218 60%
c -  0.65  0 26 9 20 2316 1 57501 6014 46% 11 954 218 60%
c B  0.69  0 25 9 20 2318 1 60936 8297 45% 11 954 218 60%
c -  0.70  0 25 9 21 2319 1 61976 6078 45% 11 954 218 60%
c 3  0.70  0 25 9 21 2319 1 62165 6212 45% 11 954 218 60%
c u  0.71  0 25 9 21 2319 1 62398 6107 45% 11 954 218 60%
c v  0.71  0 25 9 21 2319 1 62525 6075 45% 11 954 218 60%
c ]  0.74  0 25 10 21 2320 1 65214 7924 45% 11 954 218 60%
c {  0.74  0 27 10 21 2320 6 65214 7924 61% 7 954 218 60%
c -  0.76  0 27 10 22 2537 6 66561 6836 61% 7 954 218 60%
c -  0.84  0 26 10 23 3235 6 71251 8135 58% 7 954 218 60%
c }  0.86  0 25 11 23 3488 6 73100 9762 58% 7 954 218 60%
c [  0.86  0 25 11 23 3488 1 73100 9762 45% 11 954 218 60%
c 3  0.89  0 25 11 23 3490 1 75293 11397 45% 11 954 218 60%
c u  0.90  0 25 11 23 3490 1 75552 11236 45% 11 954 218 60%
c v  0.90  0 25 11 23 3490 1 75770 11110 45% 11 954 218 60%
c w  0.90  0 25 11 23 3490 1 75808 11110 45% 11 954 218 60%
c
c  seconds   switched    rate          trail    variables
c         MB   reductions  conflicts       glue     remaining
c          level    restarts    redundant  irredundant
c
c -  0.91  0 25 11 24 3490 1 76046 8322 45% 11 954 218 60%
c W  0.94  0 24 11 24 3491 1 78739 10130 44% 11 954 218 60%
c -  0.97  0 24 11 25 3493 1 80945 8255 44% 11 954 218 60%
c e  1.02  0 23 11 25 3494 1 85757 11528 44% 11 1013 190 53%
c -  1.04  0 23 11 26 3494 1 85946 5428 44% 11 1013 190 53%
c 3  1.07  0 23 11 26 3497 1 89930 8126 43% 11 1013 190 53%
c u  1.08  0 23 11 26 3497 1 90252 7968 43% 11 1013 190 53%
c v  1.08  0 23 11 26 3497 1 90463 7905 43% 11 1013 190 53%
c -  1.10  0 23 11 27 3497 1 91047 5699 43% 11 1013 190 53%
c -  1.15  0 22 11 28 3501 1 96245 6366 43% 11 1013 190 53%
c O  1.18  0 22 11 28 3501 1 99651 8617 43% 11 1013 190 53%
c ]  1.20  0 22 12 28 3502 1 101313 9731 43% 11 1013 190 53%
c {  1.20  0 25 12 28 3502 6 101313 9731 58% 7 1013 190 53%
c -  1.21  0 25 12 29 3540 6 101536 7206 58% 7 1013 190 53%
c 3  1.26  0 24 12 29 3760 5 106282 10902 56% 7 1013 190 53%
c u  1.26  0 24 12 29 3760 5 106573 10749 56% 7 1013 190 53%
c v  1.27  0 24 12 29 3760 5 106724 10695 56% 7 1013 190 53%
c -  1.28  0 24 12 30 3769 5 106924 8528 56% 7 1013 190 53%
c -  1.35  0 23 12 31 4101 4 112403 10154 55% 7 1013 190 53%
c }  1.42  0 22 13 31 4562 4 117855 14469 53% 7 1013 190 53%
c
c  seconds   switched    rate            trail     variables
c         MB   reductions  conflicts         glue      remaining
c          level    restarts      redundant  irredundant
c
c [  1.42  0 22 13 31 4562 1 117855 14469 43% 11 1013 190 53%
c -  1.43  0 22 13 32 4562 1 117973 11232 43% 11 1013 190 53%
c e  1.48  0 22 13 32 4566 1 123345 15079 42% 11 1012 189 52%
c e  1.48  0 22 13 32 4566 1 123345 15079 42% 11 1011 188 52%
c -  1.50  0 22 13 33 4566 1 123630 10719 42% 11 1011 188 52%
c B  1.50  0 22 13 33 4566 1 123876 10905 42% 11 1011 188 52%
c u  1.51  0 22 13 33 4566 1 124396 10859 42% 11 1011 188 52%
c v  1.51  0 22 13 33 4566 1 124640 10752 42% 11 1011 188 52%
c -  1.57  0 21 13 34 4568 1 129377 9286 41% 11 1011 188 52%
c -  1.64  0 21 13 35 4571 1 135208 9465 40% 11 1011 188 52%
c -  1.70  0 20 13 36 4575 1 141125 9869 39% 11 1011 188 52%
c u  1.73  0 20 13 36 4575 1 143645 11135 39% 11 1011 188 52%
c v  1.73  0 20 13 36 4575 1 143836 11109 39% 11 1011 188 52%
c -  1.78  0 20 13 37 4576 1 147125 9770 39% 10 1011 188 52%
c ]  1.82  0 20 14 37 4576 1 151616 12449 39% 10 1011 188 52%
c {  1.82  0 22 14 37 4576 4 151616 12449 53% 7 1011 188 52%
c -  1.85  0 22 14 38 4656 4 153209 10264 53% 7 1011 188 52%
c -  1.93  0 21 14 39 5078 4 159373 12232 51% 7 1011 188 52%
c u  2.01  0 21 14 39 5506 4 164404 15806 50% 7 1011 188 52%
c v  2.01  0 21 14 39 5506 4 164623 15719 50% 7 1011 188 52%
c
c  seconds   switched    rate            trail    variables
c         MB   reductions  conflicts        glue      remaining
c          level    restarts      redundant irredundant
c
c w  2.01  0 21 14 39 5506 4 164640 15719 50% 7 1011 188 52%
c -  2.04  0 20 14 40 5587 4 165617 13185 50% 7 1011 188 52%
c e  2.10  0 20 14 40 5973 4 169288 15967 50% 7 1012 187 52%
c }  2.10  0 20 15 40 6003 4 169509 16155 50% 7 1012 187 52%
c [  2.10  0 20 15 40 6003 1 169509 16155 39% 10 1012 187 52%
c W  2.10  0 20 15 40 6003 1 169509 16155 39% 10 1012 187 52%
c -  2.14  0 20 15 41 6005 1 171941 13444 38% 10 1012 187 52%
c -  2.22  0 19 15 42 6008 1 178344 12369 38% 11 1012 187 52%
c -  2.30  0 19 15 43 6011 1 184825 11227 37% 11 1012 187 52%
c u  2.33  0 19 15 43 6012 1 186857 12026 37% 11 1012 187 52%
c v  2.33  0 19 15 43 6012 1 187060 11954 37% 11 1012 187 52%
c w  2.33  0 19 15 43 6012 1 187080 11954 37% 11 1012 187 52%
c -  2.40  0 19 15 44 6015 1 191382 10592 37% 11 1012 187 52%
c -  2.47  0 19 15 45 6017 1 198018 11197 37% 11 1012 187 52%
c I  2.50  0 19 15 45 6017 1 200960 13146 37% 11 1012 187 52%
c -  2.54  0 19 15 46 6017 1 204727 11811 36% 11 1012 187 52%
c ]  2.58  0 18 16 46 6020 1 209078 14505 36% 11 1012 187 52%
c {  2.58  0 20 16 46 6020 4 209078 14505 50% 7 1012 187 52%
c u  2.61  0 20 16 46 6121 4 210806 15355 49% 7 1012 187 52%
c v  2.62  0 20 16 46 6121 4 210903 15290 49% 7 1012 187 52%
c
c  seconds   switched    rate            trail    variables
c         MB   reductions  conflicts        glue      remaining
c          level    restarts      redundant irredundant
c
c -  2.64  0 20 16 47 6178 4 211509 12137 49% 7 1012 187 52%
c -  2.74  0 19 16 48 6747 3 218364 13982 47% 7 1012 187 52%
c e  2.83  0 18 16 48 7274 3 224135 18165 46% 7 1016 186 52%
c ^  2.83  0 18 16 48 7274 3 224135 18165 46% 7 1016 186 52%
c -  2.86  0 18 16 49 7332 3 225292 14761 46% 7 1016 186 52%
c }  2.94  0 18 17 49 7720 3 231068 19049 46% 7 1016 186 52%
c [  2.94  0 18 17 49 7720 1 231068 19049 36% 11 1016 186 52%
c -  2.97  0 18 17 50 7721 1 232293 16114 36% 11 1016 186 52%
c 3  3.01  0 18 17 50 7723 1 235817 18316 36% 11 1016 186 52%
c u  3.02  0 18 17 50 7723 1 236034 18162 36% 11 1016 186 52%
c v  3.03  0 18 17 50 7723 1 236319 18051 36% 11 1016 186 52%
c w  3.03  0 18 17 50 7723 1 236339 18051 36% 11 1016 186 52%
c B  3.04  0 18 17 50 7723 1 236339 18051 36% 11 1016 186 52%
c -  3.09  0 18 17 51 7725 1 239364 15076 36% 11 1016 186 52%
c -  3.18  0 18 17 52 7728 1 246505 14058 35% 10 1016 186 52%
c -  3.28  0 17 17 53 7733 1 253718 14337 35% 10 1016 186 52%
c -  3.37  0 17 17 54 7734 1 261000 14183 35% 10 1016 186 52%
c 3  3.39  0 17 17 54 7734 1 262850 15121 35% 10 1016 186 52%
c u  3.40  0 17 17 54 7734 1 263145 14880 35% 10 1016 186 52%
c v  3.41  0 17 17 54 7734 1 263304 14823 35% 10 1016 186 52%
c
c  seconds   switched    rate            trail     variables
c         MB   reductions  conflicts         glue      remaining
c          level    restarts      redundant  irredundant
c
c w  3.41  0 17 17 54 7734 1 263325 14823 35% 10 1016 186 52%
c -  3.48  0 17 17 55 7736 1 268351 13703 35% 10 1016 186 52%
c ]  3.52  0 17 18 55 7739 1 272533 16013 35% 10 1016 186 52%
c {  3.52  0 18 18 55 7739 3 272533 16013 46% 7 1016 186 52%
c -  3.58  0 18 18 56 8030 3 275767 14946 45% 7 1016 186 52%
c -  3.69  0 17 18 57 8596 3 283250 16866 44% 7 1016 186 52%
c e  3.78  0 17 18 57 9176 3 288420 20647 44% 7 1080 167 46%
c e  3.79  0 17 18 57 9176 3 288420 20647 44% 7 1080 166 46%
c -  3.83  0 17 18 58 9322 3 290802 11357 44% 7 1080 166 46%
c 3  3.84  0 17 18 58 9327 3 291443 11832 44% 7 1080 166 46%
c u  3.85  0 17 18 58 9327 3 291704 11655 44% 7 1080 166 46%
c v  3.86  0 17 18 58 9327 3 291886 11523 44% 7 1080 166 46%
c w  3.86  0 17 18 58 9327 3 291905 11523 44% 7 1079 166 46%
c -  3.95  0 17 18 59 9784 3 298417 13035 45% 7 1079 166 46%
c }  3.99  0 17 19 59 10043 3 301721 15570 45% 7 1079 166 46%
c [  3.99  0 17 19 59 10043 1 301721 15570 35% 10 1079 166 46%
c W  4.00  0 17 19 59 10043 1 301721 15570 35% 10 1079 166 46%
c -  4.05  0 17 19 60 10045 1 306100 14009 35% 10 1079 166 46%
c -  4.14  0 17 19 61 10049 1 313847 13524 35% 10 1079 166 46%
c -  4.24  0 17 19 62 10054 1 321660 12780 35% 10 1079 166 46%
c
c  seconds   switched     rate            trail     variables
c         MB   reductions   conflicts         glue      remaining
c          level    restarts       redundant  irredundant
c
c 3  4.24  0 17 19 62 10055 1 322159 13121 35% 10 1079 166 46%
c u  4.25  0 17 19 62 10055 1 322827 12661 35% 10 1079 166 46%
c v  4.26  0 17 19 62 10055 1 322981 12608 35% 10 1079 166 46%
c -  4.34  0 17 19 63 10056 1 329536 12718 35% 10 1079 166 46%
c -  4.42  0 16 19 64 10057 1 337474 13219 35% 10 1079 166 46%
c O  4.50  0 16 19 64 10062 1 345434 17872 35% 10 1079 166 46%
c -  4.51  0 16 19 65 10062 1 345474 13685 35% 10 1079 166 46%
c -  4.61  0 16 19 66 10066 1 353537 13863 35% 10 1079 166 46%
c 3  4.63  0 16 19 66 10067 1 354921 14739 35% 10 1079 166 46%
c u  4.64  0 16 19 66 10067 1 355387 14452 35% 10 1079 166 46%
c v  4.64  0 16 19 66 10067 1 355567 14398 35% 10 1079 166 46%
c -  4.73  0 17 19 67 10071 1 361662 12818 35% 10 1079 166 46%
c ]  4.74  0 17 20 67 10071 1 362549 13371 35% 10 1079 166 46%
c {  4.74  0 17 20 67 10071 3 362549 13371 45% 7 1079 166 46%
c e  4.76  0 17 20 67 10268 3 363851 14404 45% 7 1077 165 46%
c e  4.76  0 17 20 67 10268 3 363851 14404 45% 7 1077 164 45%
c -  4.86  0 17 20 68 10665 3 369849 14983 45% 7 1077 164 45%
c -  4.99  0 17 20 69 11479 3 378096 17047 44% 8 1077 164 45%
c -  5.13  0 17 20 70 12024 3 386404 18481 44% 8 1077 164 45%
c 3  5.18  0 17 20 70 12180 3 389196 20546 43% 8 1077 164 45%
c
c  seconds   switched     rate            trail    variables
c         MB   reductions   conflicts        glue      remaining
c          level    restarts       redundant irredundant
c
c u  5.19  0 17 20 70 12180 3 389532 20414 43% 8 1077 164 45%
c v  5.20  0 17 20 70 12180 3 389787 20317 43% 8 1077 164 45%
c w  5.21  0 17 20 70 12180 3 389810 20317 43% 8 1077 164 45%
c }  5.27  0 17 21 70 12490 3 392808 22552 43% 8 1077 164 45%
c [  5.27  0 17 21 70 12490 1 392808 22552 35% 10 1077 164 45%
c B  5.28  0 17 21 70 12490 1 393597 23018 35% 10 1077 164 45%
c -  5.31  0 17 21 71 12491 1 394770 18568 35% 10 1077 164 45%
c -  5.44  0 16 21 72 12496 1 403196 17128 35% 10 1077 164 45%
c -  5.55  0 16 21 73 12501 1 411682 16188 35% 10 1077 164 45%
c -  5.66  0 16 21 74 12504 1 420231 16176 35% 10 1077 164 45%
c 3  5.72  0 16 21 74 12504 1 425099 18978 35% 10 1077 164 45%
c u  5.74  0 16 21 74 12504 1 425468 18695 35% 10 1077 164 45%
c v  5.74  0 16 21 74 12504 1 425619 18657 35% 10 1077 164 45%
c -  5.80  0 16 21 75 12505 1 428834 16371 35% 10 1077 164 45%
c -  5.92  0 15 21 76 12511 1 437494 16602 35% 10 1077 164 45%
c -  6.04  0 15 21 77 12515 1 446211 17471 35% 10 1077 164 45%
c ]  6.04  0 15 22 77 12515 1 446266 17503 35% 10 1077 164 45%
c {  6.04  0 17 22 77 12515 3 446266 17503 43% 8 1077 164 45%
c ^  6.09  0 17 22 77 12752 3 449667 19894 43% 8 1077 164 45%
c -  6.18  0 16 22 78 12883 3 454986 19661 43% 8 1077 164 45%
c
c  seconds   switched     rate            trail    variables
c         MB   reductions   conflicts        glue      remaining
c          level    restarts       redundant irredundant
c
c 3  6.31  0 16 22 78 13467 3 462647 24842 43% 8 1077 164 45%
c u  6.33  0 16 22 78 13467 3 463018 24705 43% 8 1077 164 45%
c v  6.34  0 16 22 78 13467 3 463146 24653 43% 8 1077 164 45%
c -  6.37  0 16 22 79 13468 3 463817 20311 43% 8 1077 164 45%
c -  6.54  0 16 22 80 14002 3 472705 20991 42% 8 1077 164 45%
c }  6.67  0 16 23 80 14445 3 480808 26156 42% 8 1077 164 45%
c [  6.67  0 15 23 80 14445 1 480808 26156 35% 10 1077 164 45%
c W  6.67  0 15 23 80 14445 1 480808 26156 35% 10 1077 164 45%
c -  6.70  0 15 23 81 14445 1 481649 21659 35% 10 1077 164 45%
c -  6.83  0 15 23 82 14451 1 490649 20891 35% 10 1077 164 45%
c -  6.96  0 15 23 83 14455 1 499704 19947 35% 10 1077 164 45%
c 3  6.99  0 15 23 83 14457 1 501907 21277 35% 10 1077 164 45%
c u  7.01  0 15 23 83 14457 1 502553 20873 35% 10 1077 164 45%
c v  7.03  0 15 23 83 14457 1 502812 20775 35% 10 1077 164 45%
c -  7.13  0 15 23 84 14458 1 508815 19519 35% 9 1077 164 45%
c -  7.26  0 14 23 85 14459 1 517981 19806 35% 9 1077 164 45%
c -  7.39  0 14 23 86 14465 1 527200 20688 34% 9 1077 164 45%
c -  7.52  0 14 23 87 14470 1 536473 21498 34% 9 1077 164 45%
c ]  7.53  0 14 24 87 14471 1 537517 22156 34% 9 1077 164 45%
c {  7.54  0 16 24 87 14471 3 537517 22156 42% 8 1077 164 45%
c
c  seconds   switched     rate            trail    variables
c         MB   reductions   conflicts        glue      remaining
c          level    restarts       redundant irredundant
c
c 3  7.63  0 15 24 87 14733 2 543311 25647 41% 8 1077 164 45%
c u  7.65  0 15 24 87 14733 2 543814 24942 41% 8 1077 164 45%
c v  7.66  0 15 24 87 14733 2 543999 24895 41% 8 1077 164 45%
c -  7.71  0 15 24 88 14790 2 545802 21596 41% 8 1077 164 45%
c e  7.72  0 15 24 88 14790 2 546361 21946 41% 8 1178 153 42%
c -  7.84  0 15 24 89 15039 2 555182 13198 42% 8 1178 153 42%
c -  7.97  0 16 24 90 15519 2 564617 16170 43% 8 1178 153 42%
c -  8.11  0 15 24 91 16195 2 574104 18157 43% 8 1178 153 42%
c -  8.29  0 15 24 92 17187 2 583643 19117 43% 8 1178 153 42%
c f  8.33  0 15 24 92 17466 2 586255 21060 43% 8 1178 153 42%
c u  8.35  0 15 24 92 17466 2 586715 20813 43% 8 1178 153 42%
c v  8.36  0 15 24 92 17466 2 586959 20574 43% 8 1178 153 42%
c w  8.36  0 15 24 92 17466 2 586988 20574 43% 8 1175 153 42%
c }  8.41  0 15 25 92 17656 2 589591 22410 43% 8 1175 153 42%
c [  8.41  0 14 25 92 17656 1 589591 22410 34% 9 1175 153 42%
c I  8.41  0 14 25 92 17656 1 589591 22410 34% 9 1175 153 42%
c -  8.47  0 14 25 93 17658 1 593235 18034 35% 9 1175 153 42%
c -  8.59  0 14 25 94 17663 1 602878 16596 35% 9 1175 153 42%
c -  8.71  0 14 25 95 17669 1 612573 16108 36% 9 1175 153 42%
c -  8.83  0 14 25 96 17670 1 622319 16443 36% 9 1175 153 42%
c
c  seconds   switched     rate            trail    variables
c         MB   reductions   conflicts        glue      remaining
c          level    restarts       redundant irredundant
c
c f  8.95  0 14 25 96 17676 1 632084 22816 36% 9 1175 153 42%
c u  8.97  0 14 25 96 17676 1 632429 22625 36% 9 1175 153 42%
c v  8.98  0 14 25 96 17676 1 632674 22467 36% 9 1175 153 42%
c -  9.00  0 14 25 97 17676 1 632695 16359 36% 9 1175 153 42%
c -  9.13  0 14 25 98 17681 1 642545 17796 37% 9 1175 153 42%
c B  9.24  0 14 25 98 17685 1 652141 24081 37% 9 1175 153 42%
c -  9.26  0 15 25 99 17685 1 652447 17637 37% 9 1175 153 42%
c !  9.32  0 15 25 99 17685 1 657101 20718 38% 9 1175 153 42%
c -  9.40  0 14 25 100 17686 1 662399 16954 38% 9 1175 153 42%
c -  9.53  0 14 25 101 17686 1 672400 16996 38% 9 1175 153 42%
c ]  9.56  0 14 26 101 17686 1 675502 18801 38% 9 1175 153 42%
c {  9.56  0 15 26 101 17686 2 675502 18801 43% 8 1175 153 42%
c i  9.60  0 15 26 101 17692 2 678077 20238 43% 8 1175 152 42%
c 3  9.64  0 15 26 101 17709 2 679615 15643 43% 8 1155 152 42%
c t  9.64  0 15 26 101 17709 2 679615 15642 43% 8 1155 152 42%
c f  9.64  0 15 26 101 17709 2 679615 15644 43% 8 1155 152 42%
c u  9.66  0 15 26 101 17709 2 680327 15011 43% 8 1155 152 42%
c v  9.67  0 15 26 101 17709 2 680669 14872 43% 8 1155 152 42%
c w  9.67  0 15 26 101 17709 2 680702 14872 43% 8 1145 152 42%
c -  9.70  0 15 26 102 17757 2 682450 13503 43% 8 1145 152 42%
c
c  seconds   switched      rate            trail    variables
c         MB   reductions    conflicts        glue      remaining
c          level     restarts       redundant irredundant
c
c -  9.83  0 15 26 103 18232 2 692552 16948 43% 8 1145 152 42%
c -  9.98  0 15 26 104 18751 2 702701 19434 43% 8 1145 152 42%
c i 10.11  0 14 26 104 18956 2 711222 24411 42% 7 1145 151 42%
c i 10.12  0 14 26 104 18956 2 712246 24900 42% 7 1145 148 41%
c i 10.13  0 14 26 104 18956 2 712881 25244 42% 7 1145 144 40%
c - 10.18  0 14 26 105 18956 2 712900 10405 42% 7 1054 144 40%
c i 10.18  0 14 26 105 18956 2 713238 10579 42% 7 1054 141 39%
c i 10.19  0 14 26 105 18956 2 713339 10610 42% 7 1054 138 38%
c i 10.19  0 14 26 105 18956 2 713598 10755 42% 7 1054 137 38%
c i 10.19  0 14 26 105 18956 2 713617 10760 42% 7 1054 136 38%
c i 10.19  0 14 26 105 18956 2 713809 10862 42% 7 1054 131 36%
c i 10.19  0 14 26 105 18956 2 713846 10874 42% 7 1054 130 36%
c i 10.19  0 14 26 105 18956 2 713872 10882 42% 7 1054 126 35%
c } 10.19  0 14 26 105 18956 2 713878 10883 42% 7 1054 93 26%
c 0 10.19  0 14 26 105 18956 2 713878 10883 42% 7 1054 93 26%
c
c ---- [ result ] ------------------------------------------------------------
c
s UNSATISFIABLE
c
c ---- [ profiling ] ---------------------------------------------------------
c
c           9.40   92.21 %  search
c           5.47   53.67 %  stable
c           3.93   38.53 %  focused
c           0.94    9.23 %  reduce
c           0.79    7.79 %  simplify
c           0.70    6.89 %  probe
c           0.48    4.72 %  vivify
c           0.15    1.48 %  sweep
c           0.08    0.77 %  eliminate
c           0.05    0.52 %  substitute
c           0.01    0.11 %  autarky
c           0.01    0.07 %  failed
c           0.01    0.06 %  ternary
c           0.00    0.05 %  transitive
c           0.00    0.02 %  walking
c           0.00    0.02 %  subsume
c           0.00    0.01 %  backbone
c           0.00    0.01 %  parse
c =============================================
c          10.19  100.00 %  total
c
c ---- [ statistics ] --------------------------------------------------------
c
c clauses_learned:                     652692               91 %  conflicts
c conflicts:                           713878            70040.20 per second
c decisions:                          1164964                1.63 per conflict
c forward_strengthened:                   435                9 %  strengthened
c forward_subsumed:                       225                0 %  subsumed
c kitten_conflicts:                     17226                0.36 per solved
c kitten_decisions:                   1212989               25.36 per solved
c kitten_propagations:                1996494               41.74 per solved
c kitten_sat:                           44415               93 %  solved
c kitten_solved:                        47829 
c kitten_ticks:                       7486203                3.75 per propagation
c kitten_unknown:                          38                0 %  solved
c kitten_unsat:                          3376                7 %  solved
c literals_bumped:                   22120854               33.89 per clause
c literals_deduced:                  10444743               16.00 per clause
c literals_learned:                   8354067               12.80 per clause
c literals_minimized:                       0                0 %  deduced
c literals_minimize_shrunken:          537779               26 %  shrunken
c literals_shrunken:                  2090688               20 %  deduced
c propagations:                      11713181          1149207    per second
c reductions:                             105             6799    interval
c rephased:                                21            33994    interval
c restarts:                             18956               37.66 interval
c restarts_reused_trails:                6166               33 %  restarts
c strengthened:                          5023                4 %  checks
c substituted:                              6                2 %  variables
c subsumption_checks:                  118090 
c subsumed:                            191070              162 %  checks
c sweep:                                   32            22309    interval
c sweep_completed:                         20                2    sweeps
c sweep_equivalences:                       0                0    variables
c sweep_sat:                            44265               99 %  sweep_solved
c sweep_solved:                         44771               94 %  kitten_solved
c sweep_units:                              0                0 %  variables
c sweep_unsat:                            468                1 %  sweep_solved
c sweep_variables:                       2697              747 %  variables
c walks:                                    6           118980    interval
c
c ---- [ proof ] -------------------------------------------------------------
c
c proof_added:                         697173               50 %  per line
c proof_bytes:                       35942711               34 MB 
c proof_deleted:                       686371               50 %  per line
c
c ---- [ resources ] ---------------------------------------------------------
c
c maximum-resident-set-size:      16055795712 bytes      15312 MB
c process-time:                            10s              10.19 seconds
c
c ---- [ shutting down ] -----------------------------------------------------
c
c exit 20
c turning on binary mode checking
c parsing input formula with 360 variables and 1196 clauses
c finished parsing, read 35942711 bytes from proof file
c detected empty clause; start verification via backward checking
c 1066 of 1196 clauses in core                            
c 421001 of 697174 lemmas in core using 5708902 resolution steps
c 0 RAT lemmas in core; 0 redundant literals in core lemmas
s VERIFIED
c verification time: 13.413 seconds
